QBPP_HJ-_30_025_06_4
30 266 59
22 13 26 4 37 44 31 28 35 21 14 50 15 36 8 22 17 29 47 7 48 12 28 43 24 41 15 25 8 48
     0   -40     0     0     0     0   -84   -32     0     0     0     0     0     0   -76     0     0     0  -100     0   -52     0     0     0     0     0     0     0     0     0
   -40     0     0     0     0     0     0     0   -83     0     0     0   -39     0     0     0     0    -8     0     0   -88     0     0     0     0   -57     0     0   -13     0
     0     0     0     0   -53     0     0     0     0     0     0   -75   -28     0     0     0     0   -83     0     0   -19     0     0     0   -35     0     0     0     0     0
     0     0     0     0     0   -88     0     0     0     0     0   -69   -42   -45     0     0   -78     0     0     0     0     0     0     0   -94     0     0     0     0   -82
     0     0   -53     0     0     0     0     0   -53     0     0     0     0     0     0     0     0     0     0   -96     0     0     0     0   -92     0     0   -29     0     0
     0     0     0   -88     0     0     0     0   -10   -79     0     0   -40     0   -89   -67     0     0   -74     0     0     0     0   -26   -51     0     0     0     0     0
   -84     0     0     0     0     0     0     0   -37     0   -76     0     0     0     0   -60   -81   -81     0     0    -9   -23     0     0     0     0   -58     0     0   -65
   -32     0     0     0     0     0     0     0     0     0     0     0     0    -9     0   -36     0     0     0     0     0     0   -98     0     0   -12     0    -1     0     0
     0   -83     0     0   -53   -10   -37     0     0     0     0     0     0     0     0     0     0     0     0     0     0     0     0     0   -77     0     0     0     0     0
     0     0     0     0     0   -79     0     0     0     0     0   -47     0     0     0   -10   -66     0     0   -39     0   -45     0     0     0    -2     0   -73   -29     0
     0     0     0     0     0     0   -76     0     0     0     0     0    -2     0     0   -27     0     0     0     0   -90     0     0   -85     0     0     0   -30   -39     0
     0     0   -75   -69     0     0     0     0     0   -47     0     0     0     0     0     0     0     0   -80     0     0   -11   -67     0   -30     0     0     0     0     0
     0   -39   -28   -42     0   -40     0     0     0     0    -2     0     0   -89     0     0     0   -75     0     0   -22     0     0     0     0     0   -72     0     0     0
     0     0     0   -45     0     0     0    -9     0     0     0     0   -89     0     0     0   -11     0   -11   -37     0     0     0     0    -4    -6    -1     0     0     0
   -76     0     0     0     0   -89     0     0     0     0     0     0     0     0     0     0     0     0     0   -65     0   -81     0   -61     0    -6     0     0     0     0
     0     0     0     0     0   -67   -60   -36     0   -10   -27     0     0     0     0     0     0     0     0   -83     0     0   -22     0     0     0   -43     0     0     0
     0     0     0   -78     0     0   -81     0     0   -66     0     0     0   -11     0     0     0     0     0   -90   -54     0     0     0     0     0     0     0     0     0
     0    -8   -83     0     0     0   -81     0     0     0     0     0   -75     0     0     0     0     0     0     0     0   -55     0     0     0     0     0     0     0     0
  -100     0     0     0     0   -74     0     0     0     0     0   -80     0   -11     0     0     0     0     0     0     0     0   -16     0   -28     0     0     0     0   -64
     0     0     0     0   -96     0     0     0     0   -39     0     0     0   -37   -65   -83   -90     0     0     0     0     0     0     0     0     0     0     0     0     0
   -52   -88   -19     0     0     0    -9     0     0     0   -90     0   -22     0     0     0   -54     0     0     0     0     0     0   -34     0     0     0     0     0   -60
     0     0     0     0     0     0   -23     0     0   -45     0   -11     0     0   -81     0     0   -55     0     0     0     0   -23     0   -59     0     0     0     0     0
     0     0     0     0     0     0     0   -98     0     0     0   -67     0     0     0   -22     0     0   -16     0     0   -23     0   -60     0     0     0     0   -84     0
     0     0     0     0     0   -26     0     0     0     0   -85     0     0     0   -61     0     0     0     0     0   -34     0   -60     0     0   -11     0     0     0     0
     0     0   -35   -94   -92   -51     0     0   -77     0     0   -30     0    -4     0     0     0     0   -28     0     0   -59     0     0     0   -51     0     0     0   -87
     0   -57     0     0     0     0     0   -12     0    -2     0     0     0    -6    -6     0     0     0     0     0     0     0     0   -11   -51     0     0   -93     0   -41
     0     0     0     0     0     0   -58     0     0     0     0     0   -72    -1     0   -43     0     0     0     0     0     0     0     0     0     0     0     0     0   -84
     0     0     0     0   -29     0     0    -1     0   -73   -30     0     0     0     0     0     0     0     0     0     0     0     0     0     0   -93     0     0     0   -33
     0   -13     0     0     0     0     0     0     0   -29   -39     0     0     0     0     0     0     0     0     0     0     0   -84     0     0     0     0     0     0     0
     0     0     0   -82     0     0   -65     0     0     0     0     0     0     0     0     0     0     0   -64     0   -60     0     0     0   -87   -41   -84   -33     0     0
